Instance: E101-14s.dat
Class:  3
  100 --- number of customers (no depot)
   22 --- number of vehicles
  211 --- number of items
Capacity - height - width of vehicles
   112     40     20
Node - x - y - demand
    0    35.0    35.0     0.0
    1    41.0    49.0    10.0
    2    35.0    17.0     7.0
    3    55.0    45.0    13.0
    4    55.0    20.0    19.0
    5    15.0    30.0    26.0
    6    25.0    30.0     3.0
    7    20.0    50.0     5.0
    8    10.0    43.0     9.0
    9    55.0    60.0    16.0
   10    30.0    60.0    16.0
   11    20.0    65.0    12.0
   12    50.0    35.0    19.0
   13    30.0    25.0    23.0
   14    15.0    10.0    20.0
   15    30.0     5.0     8.0
   16    10.0    20.0    19.0
   17     5.0    30.0     2.0
   18    20.0    40.0    12.0
   19    15.0    60.0    17.0
   20    45.0    65.0     9.0
   21    45.0    20.0    11.0
   22    45.0    10.0    18.0
   23    55.0     5.0    29.0
   24    65.0    35.0     3.0
   25    65.0    20.0     6.0
   26    45.0    30.0    17.0
   27    35.0    40.0    16.0
   28    41.0    37.0    16.0
   29    64.0    42.0     9.0
   30    40.0    60.0    21.0
   31    31.0    52.0    27.0
   32    35.0    69.0    23.0
   33    53.0    52.0    11.0
   34    65.0    55.0    14.0
   35    63.0    65.0     8.0
   36     2.0    60.0     5.0
   37    20.0    20.0     8.0
   38     5.0     5.0    16.0
   39    60.0    12.0    31.0
   40    40.0    25.0     9.0
   41    42.0     7.0     5.0
   42    24.0    12.0     5.0
   43    23.0     3.0     7.0
   44    11.0    14.0    18.0
   45     6.0    38.0    16.0
   46     2.0    48.0     1.0
   47     8.0    56.0    27.0
   48    13.0    52.0    36.0
   49     6.0    68.0    30.0
   50    47.0    47.0    13.0
   51    49.0    58.0    10.0
   52    27.0    43.0     9.0
   53    37.0    31.0    14.0
   54    57.0    29.0    18.0
   55    63.0    23.0     2.0
   56    53.0    12.0     6.0
   57    32.0    12.0     7.0
   58    36.0    26.0    18.0
   59    21.0    24.0    28.0
   60    17.0    34.0     3.0
   61    12.0    24.0    13.0
   62    24.0    58.0    19.0
   63    27.0    69.0    10.0
   64    15.0    77.0     9.0
   65    62.0    77.0    20.0
   66    49.0    73.0    25.0
   67    67.0     5.0    25.0
   68    56.0    39.0    36.0
   69    37.0    47.0     6.0
   70    37.0    56.0     5.0
   71    57.0    68.0    15.0
   72    47.0    16.0    25.0
   73    44.0    17.0     9.0
   74    46.0    13.0     8.0
   75    49.0    11.0    18.0
   76    49.0    42.0    13.0
   77    53.0    43.0    14.0
   78    61.0    52.0     3.0
   79    57.0    48.0    23.0
   80    56.0    37.0     6.0
   81    55.0    54.0    26.0
   82    15.0    47.0    16.0
   83    14.0    37.0    11.0
   84    11.0    31.0     7.0
   85    16.0    22.0    41.0
   86     4.0    18.0    35.0
   87    28.0    18.0    26.0
   88    26.0    52.0     9.0
   89    26.0    35.0    15.0
   90    31.0    67.0     3.0
   91    15.0    19.0     1.0
   92    22.0    22.0     2.0
   93    18.0    24.0    22.0
   94    26.0    27.0    27.0
   95    25.0    24.0    20.0
   96    22.0    27.0    11.0
   97    25.0    21.0    12.0
   98    19.0    21.0    10.0
   99    20.0    26.0     9.0
  100    18.0    18.0    17.0
Node - number of items - h - w for each item
    0   0
    1   3   30    3   19    2   13    2
    2   3    8   15   19    3   19    3
    3   2    5   12   29    2
    4   1   13    6
    5   3   11    8    6    8   19    3
    6   3    5   10   12    5   18    3
    7   3    5    9   10    8    9    7
    8   1   16    2
    9   3    8   16    5   12    5    6
   10   2    5   12   21    3
   11   1   12    5
   12   3   30    3   24    3   17    3
   13   2    9    7   17    3
   14   1   13    3
   15   3    7   11   11    5   30    4
   16   3    5   10   11    7   20    4
   17   1   25    4
   18   2    8    7   29    3
   19   2    4   14    8    9
   20   2    5   10   27    4
   21   3    6   11   16    7   16    3
   22   3    6    7    6    7   22    3
   23   2   24    3   21    3
   24   3    8   15    6   15   22    3
   25   3    6   15    8   11    8    5
   26   2    5   11    9    6
   27   3    6   15   19    3   14    3
   28   1    5   10
   29   1   30    3
   30   1    6   12
   31   3    7    7   16    6   15    2
   32   2   14    7    8    4
   33   2    8    5   11    4
   34   1   10    5
   35   1    9    4
   36   1   31    3
   37   1    7   14
   38   3    8    9   16    5   16    4
   39   1   21    4
   40   3   12    7    7    6   20    4
   41   3    7   12    7   10   30    2
   42   3    5   13   24    4   23    3
   43   1   26    2
   44   1   19    3
   45   1   18    3
   46   1   14    6
   47   3    8   12    8    5   30    3
   48   2    7    9   16    3
   49   1   29    3
   50   1    9    7
   51   3   15    4   32    3   27    3
   52   3    6   15    7   12   14    5
   53   2   22    4   24    3
   54   3   13    5   22    4   23    3
   55   1   14    3
   56   1    6    7
   57   1   15    6
   58   2    7   15    5   14
   59   3    8   15   13    8    9    6
   60   2    5   11   15    7
   61   2    8   13    9    4
   62   1   14    8
   63   3    6   15   14    6   23    3
   64   3   12    7   15    4   11    4
   65   2   12    8   13    3
   66   1   10    4
   67   2    5   12   10    4
   68   2    6   10    7    8
   69   3    4    8   13    4   24    2
   70   3    5   12    7    8   12    7
   71   1    7   10
   72   2    7    8   19    4
   73   1   16    5
   74   2    5    9   14    5
   75   2    5    9   14    7
   76   1    9    7
   77   2    5    7   22    3
   78   2   15    6   13    6
   79   2   14    7   12    5
   80   2   11    7   25    2
   81   1   23    2
   82   2   16    5   11    4
   83   1    8    7
   84   2   14    6   20    2
   85   3    6   11    5    7   12    6
   86   3    7   16    5   12   30    2
   87   3   15    7   25    3   20    2
   88   3   13    6    8    6   22    4
   89   2   15    7   25    3
   90   3    7   15    5    9   30    2
   91   3    6   13   10    7    8    5
   92   3   11    6   13    5   16    4
   93   3    9    7    9    6   20    2
   94   2   15    8   15    5
   95   3    5   11   22    3   32    2
   96   2   29    3   15    3
   97   3    6   13    5   13   22    4
   98   3   13    8   14    7   25    2
   99   2    5   16   14    2
  100   3    5   14    7    8   24    3
